NAME : mini-n16-k4
COMMENT : Instância média CVRP para teste rápido >>CRIADA PELOS ALUNOS<<
TYPE : CVRP
DIMENSION : 16
EDGE_WEIGHT_TYPE : EUC_2D
CAPACITY : 50
NODE_COORD_SECTION
 1 30 40
 2 37 52
 3 49 49
 4 52 64
 5 20 26
 6 40 30
 7 21 47
 8 17 63
 9 31 62
 10 52 33
 11 51 21
 12 42 41
 13 31 32
 14 5 25
 15 12 42
 16 36 16
DEMAND_SECTION
 1 0
 2 10
 3 7
 4 13
 5 19
 6 26
 7 3
 8 5
 9 11
 10 9
 11 8
 12 14
 13 17
 14 6
 15 15
 16 4
DEPOT_SECTION
 1
 -1
EOF
